120 151
1 44 24
2 17 41
3 41 36
4 27 50
5 35 16
6 20 66
7 63 26
8 54 68
9 35 64
10 50 40
11 65 24
12 39 34
13 58 52
14 26 67
15 37 42
16 37 59
17 64 65
18 59 63
19 18 68
20 17 54
21 34 10
22 35 66
23 53 20
24 63 69
25 35 64
26 46 56
27 49 18
28 49 30
29 55 66
30 60 22
31 33 51
32 14 32
33 41 25
34 57 61
35 27 49
36 56 67
37 28 27
38 22 19
39 20 41
40 63 41
41 25 65
42 53 50
43 31 68
44 67 55
45 35 58
46 61 21
